NAME : bier127.tsp
COMMENT : Optimal tour for bier127.tsp
TYPE : TOUR
DIMENSION : 127
Total Length: 122588.88716048672
TOUR_SECTION
1
16
2
51
50
121
57
54
45
103
44
35
37
36
41
14
12
31
27
30
43
40
34
42
39
38
26
25
33
122
28
29
32
98
97
123
95
93
127
107
111
112
94
46
48
118
49
53
47
56
5
52
124
55
66
113
65
99
92
89
125
104
110
85
86
87
88
109
96
119
63
102
101
83
82
126
81
84
117
80
79
78
76
75
69
70
71
68
73
74
77
18
72
8
19
22
21
17
20
108
4
23
24
9
11
114
6
106
15
105
7
120
13
115
10
3
100
64
58
91
61
90
116
60
62
59
67
-1
EOF
